11 20

3 4 5 2 6 6 14 2 8 5
9 12 12 15 11 12 16 11 13 11
10 8 11 5 18 5 12 8 17 11 4 10
6 11 10 13 20 5 1 12 7 7
11 2 8 6 18 5 19 9 5 9 20 14
5 12 7 12 9 2 6 4 3 3 8 5
1 2 11 8 12 5 20 2 6 12 2 14
4 4 10 6 15 14 1 13 16 14
10 2 11 13 4 15 3 15
15 10 4 2 3 8 7 15 9 11
12 14 11 8 13 5 10 6 15 8
